c k-CNF (m,n) randomly generated clauses
p cnf 16 30 
2 -9 -11 0
-1 0
-10 -6 -15 0
12 5 0
-4 6 0
-2 10 6 0
-11 0
-2 0
-15 0
8 0
-4 0
6 0
3 9 0
-15 -9 0
12 -11 0
-7 0
11 0
4 0
8 -10 0
9 -5 -1 0
1 0
-14 16 0
14 -11 -7 0
-7 16 -9 0
-7 -1 15 0
-11 13 0
-8 -16 0
10 -5 -8 0
-15 12 0
10 0
